c Source : https://houseofgraphs.org/graphs/1190
c HoG id : 1190
c Number of vertices : 30
c Number of edges : 60
c Maximum clique size : 3
p edge 30 60
e 1 2
e 1 3
e 1 4
e 1 5
e 2 4
e 2 23
e 2 27
e 3 5
e 3 24
e 3 28
e 4 26
e 4 29
e 5 25
e 5 30
e 6 7
e 6 8
e 6 9
e 6 10
e 7 9
e 7 11
e 7 15
e 8 10
e 8 12
e 8 16
e 9 14
e 9 18
e 10 13
e 10 17
e 11 12
e 11 15
e 11 19
e 12 16
e 12 19
e 13 14
e 13 17
e 13 20
e 14 18
e 14 20
e 15 21
e 15 23
e 16 22
e 16 24
e 17 22
e 17 25
e 18 21
e 18 26
e 19 27
e 19 28
e 20 29
e 20 30
e 21 23
e 21 26
e 22 24
e 22 25
e 23 27
e 24 28
e 25 30
e 26 29
e 27 28
e 29 30